c Output_time 26.03.2020 18:13:10_+0100 1585242790609809880
c ** Program information **
c program_name                          "QBRG_debug"
c version                               "0.3.20"
c date                                  "25.3.2020"
c gid_id                                "673970833836058123f633335630c185360d632e"
c author                                "Oliver Kullmann"
c url                                   "https://github.com/OKullmann/oklibrary/blob/master/Satisfiability/Transformers/Generators/Random/QBRG.cpp"
c ** Machine information **
c machine_name                          "chyna-Lenovo-G50-70"
c bogomips                              3791.08
c ** Compilation information **
c compiler_version                      "g++ 7.5.0"
c compilation_date                      "Mar_26_2020 11:16:30"
c compilation_options                   "--std=c++17 -pedantic -fmax-errors=5 -Wall -Wextra -g -D_GLIBCXX_DEBUG"
c NDEBUG                                0
c OPTIMIZE                              0
c ** Parameters **
c command-line                          "./QBRG_debug" "e40 a40 40" "183*1,1|2-2,1|3-3,1" "" "1,t" ""
c output                                "QuBlRaGe_120_183_1585242790589520144.qdimacs"
c options                               "filtered,renamed"
c num_quantifier_blocks                 3
c  quantifier_blocks                    1:e1-40 2:a41-80 3:e81-120
c num_clause-blocks                     1
c  clause-blocks                        183 * {1-40,1,1/2} | {41-80,1,1/2} | {81-120,1,1/2}
c num_e-seeds                           30+2=32
c  e-seeds                              1 0 1 0 4 120 2 40 1 40 0 40 1 183 3 1 1 1 1 2 2 2 1 1 2 3 3 1 1 2 1 1585242790589519683
p cnf 120 183
e 1 2 3 4 5 6 7 8 9 10 11 12 13 14 15 16 17 18 19 20 21 22 23 24 25 26 27 28 29 30 31 32 33 34 35 36 37 38 39 40 0
a 41 42 43 44 45 46 47 48 49 50 51 52 53 54 55 56 57 58 59 60 61 62 63 64 65 66 67 68 69 70 71 72 73 74 75 76 77 78 79 80 0
e 81 82 83 84 85 86 87 88 89 90 91 92 93 94 95 96 97 98 99 100 101 102 103 104 105 106 107 108 109 110 111 112 113 114 115 116 117 118 119 120 0
39 -61 -81 0
10 67 -81 0
14 69 -81 0
-33 77 -81 0
-14 -79 -81 0
5 52 -82 0
-25 -79 -82 0
40 -79 -82 0
34 -55 82 0
9 -65 82 0
30 44 -83 0
-10 -51 -83 0
-17 57 -83 0
21 72 -83 0
-23 -49 83 0
6 51 83 0
28 -58 83 0
-27 65 83 0
38 -51 -84 0
-25 -78 84 0
-8 -59 -85 0
3 65 -85 0
-26 76 -85 0
33 -79 -85 0
-8 46 85 0
19 60 -86 0
-21 -42 86 0
13 42 -87 0
-16 46 -87 0
-37 50 -87 0
37 -51 -87 0
11 58 -87 0
21 -59 87 0
14 65 87 0
16 -75 87 0
-35 -77 87 0
-23 -48 -88 0
14 67 -88 0
38 41 88 0
21 63 88 0
-1 -64 88 0
2 -64 88 0
10 -43 -89 0
29 -45 -89 0
12 54 -89 0
39 -57 -89 0
24 -49 89 0
7 77 89 0
23 80 89 0
-40 44 -90 0
16 50 -90 0
-17 -71 90 0
29 45 -91 0
16 47 -91 0
-21 58 -91 0
18 -64 -91 0
25 -76 -91 0
-32 -43 91 0
39 48 91 0
-34 70 92 0
17 -73 92 0
1 -48 -93 0
-33 -51 93 0
-17 -60 93 0
-28 72 93 0
35 -73 93 0
9 -52 -94 0
12 -55 -94 0
40 66 -94 0
-16 -73 -94 0
-28 -79 -94 0
-37 56 94 0
39 60 94 0
9 73 -95 0
-26 61 95 0
34 -44 -96 0
4 55 -96 0
3 59 -96 0
-36 41 96 0
26 76 96 0
17 -79 96 0
34 47 -97 0
39 44 97 0
34 -45 97 0
-6 46 97 0
30 57 97 0
24 -68 97 0
8 47 -98 0
11 -60 -98 0
40 77 -98 0
1 -48 98 0
35 -60 98 0
12 -44 -99 0
-12 -62 -99 0
13 -76 -99 0
16 52 99 0
-30 53 99 0
15 -58 99 0
-7 79 -100 0
-30 -61 100 0
4 69 100 0
40 -73 100 0
-22 69 -101 0
33 41 101 0
23 50 -102 0
3 -55 -102 0
-18 63 -102 0
-17 -69 -102 0
33 46 -103 0
-3 -67 -103 0
-20 -43 103 0
11 -70 103 0
-15 70 103 0
-15 50 -104 0
10 -73 104 0
33 -48 -105 0
2 67 -105 0
36 -41 105 0
-2 55 105 0
-28 57 105 0
-12 -62 105 0
37 63 105 0
-11 70 105 0
-22 -77 105 0
26 78 105 0
12 79 105 0
-40 -80 105 0
28 80 105 0
25 -43 -106 0
6 -67 -106 0
23 -68 -106 0
-28 -65 106 0
-40 -54 -107 0
-5 -60 -107 0
8 63 -107 0
-7 79 -107 0
-12 -75 107 0
3 -41 108 0
22 47 108 0
22 -48 108 0
-29 46 -109 0
-37 54 -109 0
-6 -41 109 0
27 47 109 0
-25 59 109 0
29 -65 110 0
-14 59 111 0
7 -72 111 0
30 -76 111 0
-18 70 -112 0
-6 51 112 0
31 -54 112 0
-28 -58 -113 0
-7 68 -113 0
-34 -42 113 0
-35 -48 113 0
7 -57 113 0
8 78 113 0
-22 43 -114 0
23 -77 -114 0
-11 47 114 0
34 62 114 0
-15 -71 114 0
7 -42 -115 0
-24 47 -115 0
-14 79 -115 0
9 49 115 0
-16 -66 115 0
12 -49 116 0
-34 47 -117 0
17 -58 117 0
-4 71 117 0
10 71 117 0
-28 -79 117 0
7 -59 -118 0
-8 67 -118 0
33 68 -118 0
-22 41 118 0
31 70 118 0
-13 -70 -119 0
37 -65 -120 0
-17 -68 -120 0
9 74 -120 0
